experiment/data/lkh-res/Vrp-Set-B-n57/Vrp-Set-B-n57-lkh/0.lkh1.vrp
NAME : 0
COMMENT : CVRP Instance
TYPE : CVRP
DIMENSION : 57
EDGE_WEIGHT_TYPE : EUC_2D
CAPACITY : 100
NODE_COORD_SECTION
1	1100	8300
2	3700	6100
3	7700	8100
4	3500	2100
5	100	9300
6	2100	3900
7	6300	700
8	9700	9500
9	300	700
10	500	300
11	3600	2200
12	6400	1000
13	600	800
14	2400	4000
15	8600	8200
16	6800	1400
17	2800	4600
18	1000	800
19	800	1400
20	1000	1000
21	10400	10400
22	3800	2400
23	8000	8200
24	2200	4600
25	2600	4000
26	400	1000
27	1000	1200
28	2600	4400
29	400	1000
30	400	9800
31	7800	8200
32	6400	800
33	9800	9800
34	2400	4000
35	1000	800
36	800	9600
37	800	800
38	8400	9000
39	800	800
40	8600	8600
41	600	9400
42	1000	1000
43	8000	8200
44	10200	9600
45	3600	2600
46	4400	2800
47	2200	4600
48	10000	10000
49	2800	4200
50	3000	4000
51	7800	8400
52	1000	400
53	7800	8400
54	600	800
55	1000	9400
56	4000	6600
57	1000	1600
DEMAND_SECTION
1	0
2	2
3	1
4	3
5	9
6	13
7	21
8	6
9	22
10	10
11	23
12	2
13	15
14	10
15	23
16	8
17	5
18	14
19	6
20	15
21	18
22	15
23	10
24	17
25	1
26	1
27	18
28	7
29	12
30	9
31	26
32	60
33	12
34	17
35	9
36	7
37	13
38	24
39	10
40	17
41	24
42	25
43	1
44	20
45	14
46	6
47	9
48	11
49	2
50	11
51	17
52	3
53	1
54	8
55	12
56	9
57	13
DEPOT_SECTION
1
-1
EOF
