experiment/data/lkh-res/Vrp-Set-B-n57/Vrp-Set-B-n57-lkh/0.lkh1.log
PARAMETER_FILE = baseline_results/cvrp_lkh/Vrp-Set-B-n57/Vrp-Set-B-n57-lkh/0.lkh1.par
Reading PROBLEM_FILE: "baseline_results/cvrp_lkh/Vrp-Set-B-n57/Vrp-Set-B-n57-lkh/0.lkh1.vrp" ... done
ASCENT_CANDIDATES = 50
BACKBONE_TRIALS = 0
BACKTRACKING = NO
# BWTSP =
# CANDIDATE_FILE =
CANDIDATE_SET_TYPE = ALPHA
# DISTANCE =
DEPOT = 1
# EDGE_FILE =
EXCESS = 0.0175439
EXTERNAL_SALESMEN = 0
EXTRA_CANDIDATES = 0 
EXTRA_CANDIDATE_SET_TYPE = QUADRANT
GAIN23 = NO
GAIN_CRITERION = YES
INITIAL_PERIOD = 100
INITIAL_STEP_SIZE = 1
INITIAL_TOUR_ALGORITHM = WALK
# INITIAL_TOUR_FILE = 
INITIAL_TOUR_FRACTION = 1.000
# INPUT_TOUR_FILE = 
KICK_TYPE = 4
KICKS = 1
# MAX_BREADTH =
MAKESPAN = NO
MAX_CANDIDATES = 5 
MAX_SWAPS = 0
MAX_TRIALS = 10000
# MERGE_TOUR_FILE =
MOVE_TYPE = 5 SPECIAL
MTSP_MIN_SIZE = 1
MTSP_MAX_SIZE = 56
# MTSP_SOLUTION_FILE = 
# NONSEQUENTIAL_MOVE_TYPE = 5
# OPTIMUM =
OUTPUT_TOUR_FILE = baseline_results/cvrp_lkh/Vrp-Set-B-n57/Vrp-Set-B-n57-lkh/0.lkh1.tour
PATCHING_A = 1 
PATCHING_C = 0 
# PI_FILE = 
POPMUSIC_INITIAL_TOUR = NO
POPMUSIC_MAX_NEIGHBORS = 5
POPMUSIC_SAMPLE_SIZE = 10
POPMUSIC_SOLUTIONS = 50
POPMUSIC_TRIALS = 1
POPULATION_SIZE = 10
PRECISION = 100
PROBLEM_FILE = baseline_results/cvrp_lkh/Vrp-Set-B-n57/Vrp-Set-B-n57-lkh/0.lkh1.vrp
RECOMBINATION = IPT
RESTRICTED_SEARCH = YES
RUNS = 1
SALESMEN = 7
SCALE = 1
SEED = 1234
# SINTEF_SOLUTION_FILE = 
STOP_AT_OPTIMUM = YES
SUBGRADIENT = YES
# SUBPROBLEM_SIZE =
# SUBPROBLEM_TOUR_FILE = 
SUBSEQUENT_MOVE_TYPE = 5 SPECIAL
SUBSEQUENT_PATCHING = YES
# TIME_LIMIT =
# TOTAL_TIME_LIMIT =
# TOUR_FILE = 
TRACE_LEVEL = 1
VEHICLES = 7

Lower bound = 61464.9, Ascent time = 0.01 sec.
Cand.min = 5, Cand.avg = 5.0, Cand.max = 5
Preprocessing time = 0.01 sec.
* 1: Cost = 0_145215, Time = 0.02 sec. 
Writing OUTPUT_TOUR_FILE: "baseline_results/cvrp_lkh/Vrp-Set-B-n57/Vrp-Set-B-n57-lkh/0.lkh1.tour" ... done
* 5: Cost = 0_144163, Time = 0.09 sec. 
Writing OUTPUT_TOUR_FILE: "baseline_results/cvrp_lkh/Vrp-Set-B-n57/Vrp-Set-B-n57-lkh/0.lkh1.tour" ... done
* 6: Cost = 0_143971, Time = 0.09 sec. 
Writing OUTPUT_TOUR_FILE: "baseline_results/cvrp_lkh/Vrp-Set-B-n57/Vrp-Set-B-n57-lkh/0.lkh1.tour" ... done
* 7: Cost = 0_131242, Time = 0.11 sec. 
Writing OUTPUT_TOUR_FILE: "baseline_results/cvrp_lkh/Vrp-Set-B-n57/Vrp-Set-B-n57-lkh/0.lkh1.tour" ... done
* 18: Cost = 0_131116, Time = 0.24 sec. 
Writing OUTPUT_TOUR_FILE: "baseline_results/cvrp_lkh/Vrp-Set-B-n57/Vrp-Set-B-n57-lkh/0.lkh1.tour" ... done
* 29: Cost = 0_128033, Time = 0.33 sec. 
Writing OUTPUT_TOUR_FILE: "baseline_results/cvrp_lkh/Vrp-Set-B-n57/Vrp-Set-B-n57-lkh/0.lkh1.tour" ... done
* 30: Cost = 0_122810, Time = 0.34 sec. 
Writing OUTPUT_TOUR_FILE: "baseline_results/cvrp_lkh/Vrp-Set-B-n57/Vrp-Set-B-n57-lkh/0.lkh1.tour" ... done
* 42: Cost = 0_121906, Time = 0.45 sec. 
Writing OUTPUT_TOUR_FILE: "baseline_results/cvrp_lkh/Vrp-Set-B-n57/Vrp-Set-B-n57-lkh/0.lkh1.tour" ... done
* 46: Cost = 0_118650, Time = 0.48 sec. 
Writing OUTPUT_TOUR_FILE: "baseline_results/cvrp_lkh/Vrp-Set-B-n57/Vrp-Set-B-n57-lkh/0.lkh1.tour" ... done
* 103: Cost = 0_117764, Time = 0.91 sec. 
Writing OUTPUT_TOUR_FILE: "baseline_results/cvrp_lkh/Vrp-Set-B-n57/Vrp-Set-B-n57-lkh/0.lkh1.tour" ... done
* 170: Cost = 0_117402, Time = 1.68 sec. 
Writing OUTPUT_TOUR_FILE: "baseline_results/cvrp_lkh/Vrp-Set-B-n57/Vrp-Set-B-n57-lkh/0.lkh1.tour" ... done
* 188: Cost = 0_116582, Time = 1.85 sec. 
Writing OUTPUT_TOUR_FILE: "baseline_results/cvrp_lkh/Vrp-Set-B-n57/Vrp-Set-B-n57-lkh/0.lkh1.tour" ... done
* 339: Cost = 0_116040, Time = 3.10 sec. 
Writing OUTPUT_TOUR_FILE: "baseline_results/cvrp_lkh/Vrp-Set-B-n57/Vrp-Set-B-n57-lkh/0.lkh1.tour" ... done
* 406: Cost = 0_115772, Time = 3.72 sec. 
Writing OUTPUT_TOUR_FILE: "baseline_results/cvrp_lkh/Vrp-Set-B-n57/Vrp-Set-B-n57-lkh/0.lkh1.tour" ... done
Population:
  1: 0_115772
Run 1: Cost = 0_115772, Time = 71.82 sec. 

Successes/Runs = 0/1 
Cost.min = 115772, Cost.avg = 115772.00, Cost.max = 115772
Gap.min = 0.0000%, Gap.avg = 0.0000%, Gap.max = 0.0000%
Penalty.min = 0, Penalty.avg = 0.00, Penalty.max = 0
Trials.min = 10000, Trials.avg = 10000.0, Trials.max = 10000
Time.min = 71.82 sec., Time.avg = 71.82 sec., Time.max = 71.82 sec.
Time.total = 71.83 sec.
  Size.min = 6, Size.max = 10, Penalty = 0
  Cost.min = 13026, Cost.max = 20216, Cost.sum = 115772
Best CVRP solution:
  Cost = 0_115772

