experiment/data/lkh-res/Vrp-Set-B-n57/Vrp-Set-B-n57-lkh/0.lkh1.tour
NAME : 0.115772.tour
COMMENT : Length = 115772
COMMENT : Found by LKH-3 [Keld Helsgaun] Tue Apr  9 00:59:26 2024
TYPE : TOUR
DIMENSION : 63
TOUR_SECTION
1
29
26
9
10
52
37
39
54
13
19
62
2
56
3
31
43
40
38
51
53
59
33
48
21
44
8
15
23
61
28
50
45
22
11
4
14
34
60
57
27
20
42
35
18
25
17
58
49
46
7
32
12
16
63
47
24
6
5
30
41
36
55
-1
EOF
